0 22502
1 22672
2 22706
3 22787
4 22947
10 22947
20 22947
24 23162
30 23162
40 23162
50 23162
60 23162
70 23162
80 23162
90 23162
100 23162
110 23162
120 23162
130 23162
140 23162
150 23162
160 23162
170 23162
180 23162
190 23162
200 23162
210 23162
220 23162
230 23162
240 23162
250 23162
260 23162
270 23162
280 23162
290 23162
300 23162
310 23162
320 23162
